# Node Net
9992   1
 67   1
9900   1
7301   1
9982   2
9918   2
501   2
4100   2
9959   3
2400   3
1100   3
7800   3
5600   4
 46   4
 59   4
4101   4
9985   5
2901   5
6401   5
 30   5
8700   6
 96   6
4500   6
 97   6
5800   7
1001   7
101   7
7000   7
9601   8
9939   8
201   8
3100   8
  2   9
9980   9
 44   9
8201  10
 84  10
9958  10
 17  11
9924  11
9300  12
9908  12
